# ----------------------------------------
# -          Input file for abinit       -
# -                                      -
# -         Alu fcc                      -
# ----------------------------------------


# 2-Options for output:
# ---------------------
  enunit 2
  prtvol 0
#  prtdos 2
  prtden 0
  prtwf 1
  prtnabla 1

# 3-Parameters governing the convergence:
# ---------------------------------------
  ecut 10.
  pawecutdg 50.
  pawmixdg 1
#  pawovlp =-1
  nband 10
  nstep 5
  nline 4
  toldfe 1.d-5

# 4-Options for the choice of calculation:
# ----------------------------------------
#  ixc 7

  nsppol 1
  iscf 17
  occopt 3
  tsmear 0.0036749

#  occopt 0
#  occ 2 1
#   occopt 7
#   tsmear 0.04
  ionmov 0
  optcell 0

# 5-Definition of the unit cell:
# ------------------------------
  acell 3*7.38796
#  rprim 0.0  0.5  0.5
#        0.5  0.0  0.5
#        0.5  0.5  0.0
#  natom 1  ntypat 1
#  typat 1  znucl 13.
#  xred  0.0  0.0  0.0

  rprim 1.0 0.0 0.0
        0.0 1.0 0.0
        0.0 0.0 1.0
  natom 4
  ntypat 1 1 1 1
  typat 1 1 1 1 1 1 1 1 1 1
  znucl 13
   xred   0.0 0.0 0.0
       0.5 0.5 0.0
       0.5 0.0 0.5
       0.0 0.5 0.5

  amu 26.98

# 6-Definition of special K-points:
# ---------------------------------
  kptopt 0
   nkpt 1
   kpt 0. 0. 0.
   wtk  1.0
   istwfk 1

#    ngkpt 3  3  3
#    kptopt 1
#    kptnrm 1
#    nshiftk 4
#    shiftk 0.5 0.5 0.5
#         0.5 0.0 0.0
#          0.0 0.5 0.0
#          0.0 0.0 0.5

# 7-Symmetries of the lattice:
# ----------------------------
  nsym 1
  chkprim 0

#%%<BEGIN TEST_INFO>
#%% [setup]
#%% executable = abinit
#%% test_chain = t09.in, t10.in
#%% [files]
#%% files_to_test = 
#%%   t09.out, tolnlines = 0, tolabs = 0.000e+00, tolrel = 0.000e+00, fld_options = -easy 
#%% psp_files = 13al.paw
#%% [paral_info]
#%% max_nprocs = 1
#%% [extra_info]
#%% authors = S. Mazevet
#%% keywords = 
#%% description = 
#%%   Test to prepare a conductivity calculation (test 10)
#%%   Ground state calculation for 4 Al atoms
#%%   The number of bands is unrealistic. This test produces files that are inputs for test 10. It tests the
#%%   following part of the code :
#%%   *optic_paw
#%%<END TEST_INFO>
