# Si in diamond structure

 ndtset  6

 acell   3*10.25
 rprim   0 .5 .5  .5 0 .5  .5 .5 0
 natom   2
 ntypat  1
 typat   2*1
 xred    0.000  0.000  0.000
         0.250  0.250  0.250
 znucl   14.0
 ecut    8
 ecutwfn 8

# wavefunction calculation
 kssform1    3
 nband1      17
 nbandkss1   12
 nbdbuf1     5
 prtvol1     0
 nstep1      20
 symmorphi1  0

# screening calculation
 optdriver2       3
 getkss2          -1
 nband2           10
 npweps2          27
 #ecutwfn2     6.1
 ppmfrq2          16.5 eV
 symmorphi2       0
 inclvkb2         2
 gw_eet2          2
 gw_eet_inclvkb2  1

# sigma calculation
 optdriver3       4
 getkss3          -2
 getscr3          -1
 nband3           5
 ppmodel3         1
 npwsigx3         59
 #ecutwfn3     6.1
 symmorphi3       0
 nkptgw3          1
 kptgw3           0.250  0.750  0.250
 bdgw3            4 5
 gw_eet3          2
 gw_eet_inclvkb3  1

 icutcoul3       3   #  old deprecated value of icutcoul, only used for legacy

# wavefunction calculation
 kssform4     3
 nband4      17
 nbandkss4   12
 nbdbuf4     5
 prtvol4     0
 nstep4      20
 symmorphi4  1

# screening calculation
 optdriver5       3
 getkss5          -1
 nband5           10
 npweps5          27
 #ecutwfn5     6.1
 ppmfrq5          16.5 eV
 symmorphi5       1
 inclvkb5         0
 gw_eet5          0
 gw_eet_inclvkb5  0
 gw_eet_nband5    8
 gw_eet_scale5    1.2

# sigma calculation
 optdriver6       4
 getkss6          -2
 getscr6          -1
 nband6           7
 ppmodel6         1
 npwsigx6         59
 #ecutwfn6     6.1
 symmorphi6       1
 nkptgw6          1
 kptgw6           0.250  0.750  0.250
 bdgw6            4 5
 gw_eet6          0
 gw_eet_inclvkb6  0
 gw_eet_nband6    6
 gw_eet_scale6    1.2

 icutcoul6       3   #  old deprecated value of icutcoul, only used for legacy

# valid for all datasets
 tolwfr  1.0d-16
 kptopt  1
 ngkpt   2 2 2
 nshiftk 4
 shiftk  0.5 0.5 0.5
         0.5 0.0 0.0
         0.0 0.5 0.0
         0.0 0.0 0.5
 istwfk  8*1

#%%<BEGIN TEST_INFO>
#%% [setup]
#%% executable = abinit
#%% [files]
#%% files_to_test = 
#%%   t10.out, tolnlines = 30, tolabs = 2.0e-2, tolrel = 5.0e-1, fld_options =  -medium
#%% psp_files = 14si.pspnc
#%% [paral_info]
#%% max_nprocs = 2
#%% [extra_info]
#%% authors = A. Berger
#%% keywords = GW
#%% description = 
#%%   Silicon
#%%   Calculation of a band gap using the effective energy technique (EET).
#%%<END TEST_INFO>
