# Si in diamond structure
 acell 3*10.25
 rprim   0 .5 .5  .5 0 .5  .5 .5 0
 natom  2
 ntypat  1
 typat  2*1
 xred   0.000  0.000  0.000
        0.250  0.250  0.250
 znucl 14.0

 enunit 2
 intxc  1

 ndtset 4
 ecut 6
 ecutwfn 6

# wavefunction calculation
 nbandkss1    -1
 npwkss1       0
 occopt1       1

 kssform1      3     # Use conjugate gradient
 prtvol1       0
 nline1        3
 nstep1       10
 tolwfr1      1.0d-16
 getkss1       0    # Just to avoid problem with reference out file.

# chieps calculation
 awtr       0       # Note : the default awtr 1 is better
 optdriver2 3
 optdriver3 3
 optdriver4 3
 getkss   1
 npweps   27
 ppmfrq  16.5 eV
 nqptdm2 1
 nqptdm3 2
 nqptdm4 3
 qptdm2
   0.000010    0.000020    0.000030
 qptdm3
  -0.250000    0.000000    0.250000
   0.000000    0.500000    0.500000
 qptdm4
   0.500000    0.000000    0.000000
  -0.250000    0.000000   -0.250000
  -0.250000    0.500000    0.250000

# valid for all datasets
 nband     10
 kptopt     1
 ngkpt      2 2 2
 nshiftk    4
 shiftk     0.5 0.5 0.5
            0.5 0.0 0.0
            0.0 0.5 0.0
            0.0 0.0 0.5
 istwfk   2*1

# This line added when defaults were changed (v5.3) to keep the previous, old behaviour
 iscf 5

#%%<BEGIN TEST_INFO>
#%% [setup]
#%% executable = abinit
#%% test_chain = t87.in, t88.in, t89.in 
#%% [files]
#%% files_to_test = t87.out, tolnlines=  3, tolabs=  1.100e-03, tolrel=  1.000e-02
#%% psp_files=14si.pspnc 
#%% [paral_info]
#%% max_nprocs = 2
#%% [extra_info]
#%% keywords = GW
#%% description =
#%%   Test on splitting screening calculation using nqptdm and qptdm
#%%   Si in 2-atom diamond unit cell (nkpt 2; ecut 6)
#%%   In dataset 1, ABINIT finds the ground state (tolwfr 1.0d-16), then
#%%   perfoms a full diagonalisation of the Hamiltonian (nbandkss -1; npwkss 0),
#%%   the eigenvectors necessary for the GW calculation being stored in _KSS.
#%%   In datasets 2-4, ABINIT computes the eps^-1 matrix (optdriver 3; npweps 27;
#%%   npwwfn 27; nband 10) for 1 qpt , 2 qpts, 3qpts respectively
#%%<END TEST_INFO>

