# Crystalline silicon
ndtset 8
gwpara  2

# Definition of the unit cell: fcc
acell 3*10.217         # This is equivalent to   10.217 10.217 10.217
rprim  0.0  0.5  0.5   # FCC primitive vectors (to be scaled by acell)
       0.5  0.0  0.5
       0.5  0.5  0.0

# Definition of the atom types
ntypat 1           # There is only one type of atom
znucl 14         # The keyword "zatnum" refers to the atomic number of the
                  # possible type(s) of atom. The pseudopotential(s)
                  # mentioned in the "files" file must correspond
                  # to the type(s) of atom. Here, the only type is Silicon.

# Definition of the atoms
natom 2           # There are two atoms
typat 1 1          # They both are of type 1, that is, Silicon.
xred              # Reduced coordinate of atoms
   0.0  0.0  0.0
   0.25 0.25 0.25

# Definition of the planewave basis set (at convergence 16 Rydberg 8 Hartree)
ecut 6         # Maximal kinetic energy cut-off, in Hartree
ecutwfn 6

istwfk *1
nstep  50      # Maximal number of SCF cycles
diemac 12.0

# Dataset1: self-consistent calculation
# Definition of the k-point grid
kptopt 1          # Option for the automatic generation of k points,
ngkpt  2 2 2
nshiftk 1
shiftk 0.11 0.12 0.13  # These shifts will be the same for all grids

chksymbreak 0

# Definition of the SCF procedure
toldfe1  1.0d-6
prtden1 1

# Dataset2: definition of parameters for the calculation of the kss file
iscf2    -2 # non self-consistency, read previous density file
getden2  -1
tolwfr2  1.0d-8  # it is not important as later there is a diago
nband2    35
#nbandkss2 35
#kssform2   3


# Dataset 3 BSE equation with Model dielectric function and Haydock (only resonant + W + v)
# Note that SCR file is not needed here
optdriver3 99
getkss3  2
npweps3 51

inclvkb3  2

bs_algorithm3      2      # Haydock
bs_haydock_niter3 60      # No. of iterations for Haydock
bs_exchange_term3  1
bs_coulomb_term3   21     # Use model W and full W_GG.
mdf_epsinf3        12.0
bs_calctype3       1      # Use KS energies and orbitals to construct L0
soenergy3          0.8 eV
bs_coupling3       0
#bs_haydock_tol3 0.05 0
bs_loband3         2 
nband3             8
bs_freq_mesh3 0 10 0.1 eV
bs_hayd_term3      0      # No terminator

# Preparation of interpolation
bs_interp_prep3    1

# Dataset 4: definition of parameters for the calculation of the kss file
iscf4    -2 # non self-consistency, read previous density file
getden4   1
tolwfr4  1.0d-8  # it is not important as later there is a diago
nband4    35
#nbandkss4 35
#kssform4   3
ngkpt4   4 4 4
shiftk4  0.22 0.24 0.26

# Dataset 5
optdriver5         99
getkss5            2
getwfkfine5        4
npweps5            51
inclvkb5           2
bs_algorithm5      2      # Haydock
bs_haydock_niter5  200    # No. of iterations for Haydock
bs_exchange_term5  1
bs_coulomb_term5   21     # Use model W and full W_GG.
mdf_epsinf5        12.0
bs_calctype5       1      # Use KS energies and orbitals to construct L0
soenergy5          0.8 eV
bs_coupling5       0
#bs_haydock_tol5 0.05 0
bs_loband5         2 
nband5             8
bs_freq_mesh5      0 10 0.1 eV
bs_hayd_term5      0      # No terminator
getbsreso5         3
# Interpolation
bs_interp_mode5    1
bs_interp_kmult5   2 2 2

# Dataset 6 : Full BSE for comparison
optdriver6         99
getkss6            4
npweps6            51
inclvkb6           2
bs_algorithm6      2      # Haydock
bs_haydock_niter6  200    # No. of iterations for Haydock
bs_exchange_term6  1
bs_coulomb_term6   21     # Use model W and full W_GG.
mdf_epsinf6        12.0
bs_calctype6       1      # Use KS energies and orbitals to construct L0
soenergy6          0.8 eV
bs_coupling6       0
#bs_haydock_tol6 0.05 0
bs_loband6         2 
nband6             8
bs_freq_mesh6      0 10 0.1 eV
bs_hayd_term6      0      # No terminator

ngkpt6             4 4 4
nshiftk6           1
shiftk6            0.22 0.24 0.26


# Dataset 7 method 2
optdriver7         99
getkss7            2
getwfkfine7        4
npweps7            51
inclvkb7           2
bs_algorithm7      2      # Haydock
bs_haydock_niter7  200    # No. of iterations for Haydock
bs_exchange_term7  1
bs_coulomb_term7   21     # Use model W and full W_GG.
mdf_epsinf7        12.0
bs_calctype7       1      # Use KS energies and orbitals to construct L0
soenergy7          0.8 eV
bs_coupling7       0
#bs_haydock_tol7 0.05 0
bs_loband7         2 
nband7             8
bs_freq_mesh7      0 10 0.1 eV
bs_hayd_term7      0      # No terminator
getbsreso7         3
bs_interp_mode7    2
bs_interp_kmult7   2 2 2

# Dataset 8 method 3
optdriver8         99
getkss8            2
getwfkfine8        4
npweps8            51
inclvkb8           2
bs_algorithm8      2      # Haydock
bs_haydock_niter8  200    # No. of iterations for Haydock
bs_exchange_term8  1
bs_coulomb_term8   21     # Use model W and full W_GG.
mdf_epsinf8        12.0
bs_calctype8       1      # Use KS energies and orbitals to construct L0
soenergy8          0.8 eV
bs_coupling8       0
#bs_haydock_tol5 0.05 0
bs_loband8         2 
nband8             8
bs_freq_mesh8      0 10 0.1 eV
bs_hayd_term8      0      # No terminator
getbsreso8         3
bs_interp_mode8    3
bs_interp_kmult8   2 2 2

#%%<BEGIN TEST_INFO>
#%% [setup]
#%% executable = abinit
#%% [files]
#%% files_to_test = 
#%%  t15.out,               tolnlines = 20 , tolabs = 1.1e-2, tolrel = 4.0e-2, fld_options =  -ridiculous;
#%%  t15o_DS3_EXC_MDF    ,  tolnlines = 800, tolabs = 1.1e-2, tolrel = 4.0e-2, fld_options =  -ridiculous;
#%%  t15o_DS3_GW_NLF_MDF ,  tolnlines = 800, tolabs = 1.1e-2, tolrel = 4.0e-2, fld_options =  -ridiculous;
#%%  t15o_DS3_RPA_NLF_MDF,  tolnlines = 800, tolabs = 1.1e-2, tolrel = 4.0e-2, fld_options =  -ridiculous;
#%%  t15o_DS5_EXC_MDF    ,  tolnlines = 800, tolabs = 2,      tolrel = 0.2,    fld_options =  -ridiculous;
#%%  t15o_DS5_GW_NLF_MDF ,  tolnlines = 800, tolabs = 1.1e-2, tolrel = 4.0e-2, fld_options =  -ridiculous;
#%%  t15o_DS5_RPA_NLF_MDF,  tolnlines = 800, tolabs = 1.1e-2, tolrel = 4.0e-2, fld_options =  -ridiculous;
#%%  t15o_DS6_EXC_MDF    ,  tolnlines = 800, tolabs = 2.0,    tolrel = 1.1,    fld_options =  -ridiculous;
#%%  t15o_DS6_GW_NLF_MDF ,  tolnlines = 800, tolabs = 1.1e-2, tolrel = 4.0e-2, fld_options =  -ridiculous;
#%%  t15o_DS6_RPA_NLF_MDF,  tolnlines = 800, tolabs = 1.1e-2, tolrel = 4.0e-2, fld_options =  -ridiculous;
#%%  t15o_DS7_EXC_MDF    ,  tolnlines = 800, tolabs = 1.1e-2, tolrel = 4.0e-2, fld_options =  -ridiculous;
#%%  t15o_DS7_GW_NLF_MDF ,  tolnlines = 800, tolabs = 1.1e-2, tolrel = 4.0e-2, fld_options =  -ridiculous;
#%%  t15o_DS7_RPA_NLF_MDF,  tolnlines = 800, tolabs = 1.1e-2, tolrel = 4.0e-2, fld_options =  -ridiculous;
#%%  t15o_DS8_EXC_MDF    ,  tolnlines = 800, tolabs = 1.1e-2, tolrel = 4.0e-2, fld_options =  -ridiculous;
#%%  t15o_DS8_GW_NLF_MDF ,  tolnlines = 800, tolabs = 1.1e-2, tolrel = 4.0e-2, fld_options =  -ridiculous;
#%%  t15o_DS8_RPA_NLF_MDF,  tolnlines = 800, tolabs = 1.1e-2, tolrel = 4.0e-2, fld_options =  -ridiculous;
#%% psp_files = 14si.pspnc 
#%% [paral_info]
#%% max_nprocs = 1
#%% [extra_info]
#%% authors = Y. Gillet
#%% keywords = NC, GW, BSE
#%% description = 
#%%   Silicon: Solution of the Bethe-Salpeter equation (BSE) with the interpolation technique
#%%<END TEST_INFO>
