# Si in diamond structure
acell 3*10.22
rprim   0 .5 .5  .5 0 .5  .5 .5 0
natom  2
ntypat  1
typat 2*1
xred   0.125  0.125  0.125
       0.875  0.875  0.875
znucl  14.0
ecut   3
pawecutdg 6
pawxcdev  0

enunit 2

ngkpt         2 2 2
nshiftk       4
shiftk        0.5 0.5 0.5
              0.5 0.0 0.0
              0.0 0.5 0.0
              0.0 0.0 0.5

occopt        1

nstep         3

ndtset        6
udtset      3 2
ixc?1         2
ixc?2        -001009
intxc         0

kptopt1?      1
tolvrs1?      1.0d-10
iscf1?        7

kptopt2?      2
iscf2?       -3
nqpt2?        1
qpt2?         0.0 0.0 0.0
rfelfd2?      2
rfdir2?       1 1 1
tolwfr2?      1.0d-22
getwfk2?     11

kptopt3?      2
nqpt3?        1
qpt3?         0.0 0.0 0.0
rfphon3?      1
rfatpol3?     1 1
rfdir3?       1 0 0
tolvrs3?      1.0d-10
iscf3?        7
getwfk3?     11
getddk3?     21

#%%<BEGIN TEST_INFO>
#%% [setup]
#%% executable = abinit
#%% [files]
#%% files_to_test = 
#%%   t82.out, tolnlines = 0, tolabs = 0.0, tolrel = 0.0, fld_options = -easy
#%% psp_files = Si-LDA.paw 
#%% [paral_info]
#%% max_nprocs = 2
#%% [extra_info]
#%% authors = G.-M. Rignanese
#%% keywords = PAW, DFPT
#%% description = 
#%%   Silicon
#%%   Test the equivalence between the internal and LibXC implementations
#%%   of the Perdew-Zunger XC functionals for the response functions
#%%   (thus, the XC kernel is also tested) in PAW.
#%%<END TEST_INFO>
