# Chromium atom, in a box, treated like a metal, with nsppol=1 and ldA
# The FHI pseudopotential includes a core charge,
# inducing non-linear XC core correction
# Many parameters are too small for converged calculation.

 acell 3*9.001
 diemac 2.0d0
 diemix 0.1d0
 ecut 30
 ixc 1
 kptopt 0

 kpt   3*0.0
 natom  1
 nband 6
 nkpt 1
#nstep 7
 nstep 20

 nsppol 1
 ntypat  1
 occopt 7
#toldfe 1.d-6
 tolvrs 1.d-5
 typat  1
 wtk 1.0
 xred 0.0 0.0 0.0
 znucl  24.0
# This line added when defaults were changed (v5.3) to keep the previous, old behaviour
  iscf 5

#%%<BEGIN TEST_INFO>
#%% [setup]
#%% executable = abinit
#%% [files]
#%% files_to_test = 
#%%  t56.out, tolnlines = 0, tolabs = 0.000e+00, tolrel = 0.000e+00
#%% psp_files = 24cr.000107.fhi
#%% [paral_info]
#%% max_nprocs = 1
#%% [extra_info]
#%% keywords = 
#%% authors = 
#%% description = 
#%%   Test a FHI pseudopotential for Chromium, with non-linear XC 
#%%   core correction. The ecut is too low, the box is too small.
#%%   Use metallic occupation numbers.
#%%   The convergence is not enough to make finite-difference of energy.
#%%<END TEST_INFO>
