npulayit 5
nsym 1
occopt 2 
nsppol 2
spinat 0 0 1 
       0 0 1
nband 2*12
occ 1 1 1 1 1 1 1 0 0 0 0 0
    1 1 1 1 1 0 0 0 0 0 0 0

pawovlp 30
ionmov 2
ntime 50
tolmxf 5.0d-4
toldff 5.0d-5

iscf 17
ecut 20
pawecutdg 40.0
nstep 50
natom 2 ntypat 1 typat 2*1 
znucl 8
xcart 0 0 0
      0 0 2.2
acell 3*20.0
kptopt 1 kptrlatt 1 0 0 0 1 0 0 0 1
