#MgO molecule : prepare the density
#for Bader analysis

 ntypat  2
 typat  1 2
 znucl  8 12

 acell 8 8 11
 natom  2
#xcart 2*0.00d0 -1.81d0
#      2*0.00d0  1.81d0
 xcart 2*0.00d0 0.00d0
       2*0.00d0 3.62d0

  prtden  1
    nkpt  1
  toldfe  1.0d-12
 ecut 30
 diemac 2.0
  kptopt 0
 nstep 25
 occopt 7

# This line added when defaults were changed (v5.3) to keep the previous, old behaviour
  iscf 5

#%%<BEGIN TEST_INFO>
#%% [setup]
#%% executable = abinit
#%% test_chain = t32.in, t33.in, t34.in
#%% [files]
#%% files_to_test = 
#%%   t32.out, tolnlines = 2, tolabs = 1.010e-09, tolrel = 2.000e-09
#%% psp_files = 8o.pspnc, 12mg.pspnc
#%% [shell]
#%% post_commands = ww_cp t32o_DEN t33i_DEN; ww_mv t32o_DEN t34i_DEN
#%% [paral_info]
#%% max_nprocs = 1
#%% [extra_info]
#%% authors = 
#%% keywords = 
#%% description = 
#%%   MgO molecule, with low cut-off, in a big box, and one k point.
#%%   Pseudopotentials WITHOUT a non-linear core correction.
#%%   Prepare the Bader density analysis
#%%<END TEST_INFO>
