#   ----------------------------------------
#   -     Input file for Abinit            -
#   - Ca, simple cubic , 2  k-point        -
#   -     Testing GS  energy and lobpcg    -
#   ----------------------------------------

# 1-Parameters governing the convergence:
# ---------------------------------------
  ecut 3.  nband 6  nline 10  ntime 5  nstep 25
  toldfe 1.d-8

# 2-Options for the choice of calculation:
# ----------------------------------------
  ixc 7  occopt 7  tsmear 0.02
  iprcch 0  intxc 0  fftalg 400
  optcell 0  ionmov 0
  so_psp 1
  ortalg 1
  wfoptalg 4
  nbdblock 2

# 3-Definition of the unit cell:
# ------------------------------
  acell 3.0 3.5 4.0
  rprim  1.4  0.0  0.0
         0.0  1.4  0.0
         0.0  0.0  1.4
  natom 1  ntypat 1
  typat 1  znucl 20.
  xred 0.00 0.00 0.00

# 6-Definition of K-points :
# --------------------------
  kptopt 0
  nkpt 2
  kpt 0  0  0
     .3 .3 .3
# This line added when defaults were changed (v5.3) to keep the previous, old behaviour
  iscf 5

#%%<BEGIN TEST_INFO>
#%% [setup]
#%% executable = abinit
#%% [files]
#%% files_to_test = 
#%%   t93.out, tolnlines = 0, tolabs = 0.000e+00, tolrel = 0.000e+00
#%% psp_files = 20ca.2.hgh
#%% [paral_info]
#%% max_nprocs = 2
#%% [extra_info]
#%% authors = 
#%% keywords = 
#%% description = 
#%%   Test of Ca, simple cubic , 2  k-point. Testing GS  energy and lobpcg algorithm.
#%%<END TEST_INFO>
