diemac 2

natfix 1
iatfix 1

nsym 1
nband 10 occopt 0 occ 2 2 2 2 2 2 2 2 0 0

pawovlp 20
ionmov 2
ntime 50
tolmxf 5.0d-4
toldff 5.0d-5

iscf 17
ecut 20
pawecutdg 40.0
nstep 50
natom 3 ntypat 2 typat 1*1 2*2
znucl 6 8
xcart 0.0  0.0  0.0
      0.0  0.0 -2.4
      0.0  0.0  2.4
acell 3*20.0
kptopt 1 kptrlatt 1 0 0 0 1 0 0 0 1
