#   Potassium chloride  KCl  underconverged for fast testing.

 acell 3*11.89
 ecut 10
 enunit 2 
 intxc 1
 iscf 3   
 kptopt 0 
 kpt   1 1 1     1 2 2   kptnrm 4
 natom  2 nband 7
 nkpt  2
 nline 12  nstep 30
 nsym  24  ntypat  2
 occ 7*2.0d0 occopt  0 
 rprim   0 .5 .5  .5 0 .5  .5 .5 0
 symrel
  1  0  0   0  1  0   0  0  1
  0  1 -1   1  0 -1   0  0 -1
  0 -1  1   0 -1  0   1 -1  0
 -1  0  0  -1  0  1  -1  1  0
  0  1  0   0  0  1   1  0  0
  1  0 -1   0  0 -1   0  1 -1
  0 -1  0   1 -1  0   0 -1  1
 -1  0  1  -1  1  0  -1  0  0
  0  0  1   1  0  0   0  1  0
  0  0 -1   0  1 -1   1  0 -1
  1 -1  0   0 -1  1   0 -1  0
 -1  1  0  -1  0  0  -1  0  1
  1  0 -1   0  1 -1   0  0 -1
  0  1  0   1  0  0   0  0  1
 -1  0  1  -1  0  0  -1  1  0
  0 -1  0   0 -1  1   1 -1  0
 -1  1  0  -1  0  1  -1  0  0
  1 -1  0   0 -1  0   0 -1  1
  0  0 -1   1  0 -1   0  1 -1
  0  0  1   0  1  0   1  0  0
  0 -1  1   1 -1  0   0 -1  0
 -1  0  0  -1  1  0  -1  0  1
  1  0  0   0  0  1   0  1  0
  0  1 -1   0  0 -1   1  0 -1
 tnons 72*0.0
 tolwfr 1.0d-15
 typat  1 2  
 wtk   1 3
 xred 3*0.00d0 3*0.50d0
 znucl 19 17

#%%<BEGIN TEST_INFO>
#%% [setup]
#%% executable = abinit
#%% [files]
#%% files_to_test = 
#%%   t25.out, tolnlines = 0, tolabs = 0.000e+00, tolrel = 0.000e+00
#%% psp_files = 19k.pspnc, 17cl.pspnc
#%% [paral_info]
#%% max_nprocs = 1
#%% [extra_info]
#%% authors = 
#%% keywords = 
#%% description =  Same as 24 but with mkmem = 0, mffmem=0.
#%%<END TEST_INFO>
